15
1 0 3
2 0 9
3 0 9
3 1 9
4 0 10
4 1 11
4 2 6
4 3 10
5 0 7
5 2 11
5 3 5
6 2 10
6 5 3
7 2 1
7 3 6
7 4 3
7 5 6
8 3 4
9 0 9
9 2 4
9 3 1
9 5 4
9 6 4
9 7 3
10 0 6
10 1 8
10 2 5
10 3 8
10 4 6
10 5 11
10 8 6
11 5 4
11 6 11
11 9 1
12 1 6
12 5 9
12 6 9
12 7 8
12 11 4
13 2 3
13 4 4
13 8 6
13 9 11
14 1 4
14 4 11
14 6 4
14 7 9
14 8 1
14 11 4
